% seed = 3816888

mint = 47;
% maxt = 116;

nActs = 22;
dur = [0,3,6,3,3,1,2,9,2,7,3,9,3,8,10,9,1,9,8,10,10,0];

nSkills = 4;
sreq = [| 0,0,0,0,
	| 1,2,0,0,
	| 2,0,1,0,
	| 2,0,2,0,
	| 1,0,3,0,
	| 0,2,2,0,
	| 0,0,3,1,
	| 3,0,2,0,
	| 3,2,0,0,
	| 0,3,0,2,
	| 0,1,0,1,
	| 0,2,2,0,
	| 2,0,0,2,
	| 3,2,0,0,
	| 0,3,2,0,
	| 0,0,2,2,
	| 0,0,2,3,
	| 0,0,3,2,
	| 0,1,3,0,
	| 1,1,0,0,
	| 0,0,1,2,
	| 0,0,0,0, |];

nResources = 13;
mastery = [| false,true,true,false,
	| true,true,false,true,
	| true,false,false,false,
	| false,false,true,false,
	| false,false,false,true,
	| true,false,true,true,
	| true,true,false,false,
	| false,true,false,false,
	| true,true,true,false,
	| false,false,false,true,
	| false,true,true,true,
	| false,false,false,true,
	| false,true,true,true, |];

nPrecs = 31;
pred = [1,1,1,2,3,3,3,4,4,5,6,7,7,8,9,10,10,10,11,12,13,13,14,15,16,16,17,18,19,20,21];
succ = [2,3,4,16,9,5,8,12,6,11,7,10,11,13,15,19,21,14,16,13,21,15,20,18,17,20,21,20,22,22,22];

nUnrels = 106;
unpred = [2,2,2,2,2,2,2,2,2,2,2,2,2,2,2,3,3,3,3,3,3,3,4,4,4,5,5,5,5,5,5,5,5,5,5,5,6,6,6,6,6,6,7,7,7,7,7,7,8,8,8,8,8,8,8,8,9,9,9,9,9,9,9,9,9,10,10,10,10,10,10,10,11,11,11,11,11,11,12,12,12,12,13,13,13,13,14,14,14,14,14,14,15,15,15,15,16,16,17,17,17,18,18,19,19,20];
unsucc = [3,4,5,6,7,8,9,10,11,12,13,14,15,18,19,4,6,7,10,12,14,19,5,8,9,6,7,8,9,10,12,13,14,15,18,19,8,9,12,13,15,18,8,9,12,13,15,18,9,10,11,12,14,16,17,19,10,11,12,13,14,16,17,19,21,11,12,13,15,16,17,18,12,13,14,15,18,19,14,16,17,19,14,16,17,19,15,16,17,18,19,21,16,17,19,21,18,19,18,19,20,19,21,20,21,21];

USEFUL_RES = [{},
	{1,2,3,6,7,8,9,11,13},
	{1,2,3,4,6,7,9,11,13},
	{1,2,3,4,6,7,9,11,13},
	{1,2,3,4,6,7,9,11,13},
	{1,2,4,6,7,8,9,11,13},
	{1,2,4,5,6,9,10,11,12,13},
	{1,2,3,4,6,7,9,11,13},
	{1,2,3,6,7,8,9,11,13},
	{1,2,5,6,7,8,9,10,11,12,13},
	{1,2,5,6,7,8,9,10,11,12,13},
	{1,2,4,6,7,8,9,11,13},
	{2,3,5,6,7,9,10,11,12,13},
	{1,2,3,6,7,8,9,11,13},
	{1,2,4,6,7,8,9,11,13},
	{1,2,4,5,6,9,10,11,12,13},
	{1,2,4,5,6,9,10,11,12,13},
	{1,2,4,5,6,9,10,11,12,13},
	{1,2,4,6,7,8,9,11,13},
	{1,2,3,6,7,8,9,11,13},
	{1,2,4,5,6,9,10,11,12,13},
	{}];

POTENTIAL_ACT = [{2,3,4,5,6,7,8,9,10,11,12,14,15,16,17,18,19,20,21},
	{2,3,4,5,6,7,8,9,10,11,12,13,14,15,16,17,18,19,20,21},
	{2,3,4,5,8,9,13,14,20},
	{3,4,5,6,7,8,12,15,16,17,18,19,21},
	{7,10,11,13,16,17,18,21},
	{2,3,4,5,6,7,8,9,10,11,12,13,14,15,16,17,18,19,20,21},
	{2,3,4,5,6,8,9,10,11,12,13,14,15,19,20},
	{2,6,9,10,11,12,14,15,19,20},
	{2,3,4,5,6,7,8,9,10,11,12,13,14,15,16,17,18,19,20,21},
	{7,10,11,13,16,17,18,21},
	{2,3,4,5,6,7,8,9,10,11,12,13,14,15,16,17,18,19,20,21},
	{7,10,11,13,16,17,18,21},
	{2,3,4,5,6,7,8,9,10,11,12,13,14,15,16,17,18,19,20,21}];
